ID_groupA
9959
12559
9959
3108
9959
9959
12559
13287
12559
12559
9959
3108
3108
12559
9959
9959
9959
9959
9959
12559
12559
9959
9959
9959
3108
9959
9959
12559
12559
12559
12559
12559
13287
13287
12559
12559
3108
3108
12559
3108
12559
9959
12559
13287
5205
12559
12559
3108
3108
12559
9959
9959
12559
13287
12559
3108
3108
3108
3108
3108
9959
12559
13287
13287
12559
12559
3108
9959
12559
12559
12559
12559
9959
9959
3108
9959
9959
12559
12559
12559
12559
3108
12559
12559
13287
13287
13287
13287
12559
13287
13287
5205
3108
3108
12559
12559
3108
3108
12559
3108
3108
12559
3108
3108
9959
